c
c Renamed file of cm150a.cnf 
c Variables are renamed according to left2right.ord 
c
c Date: Thu Apr 29 14:49:12 PDT 2004 by (jinbo)
c Host: Linux solution 2.4.18-4smp #1 SMP Thu May 2 18:32:34 EDT 2002 i686 unknown
c
c Copyright (c) 2001 Fadi A. Aloul.
c
p cnf 84 202
-5 -4 0
4 5 0
-4 3 0
1 -2 0
2 -1 0
-2 3 0
-3 4 2 0
-31 -30 0
-33 -30 0
30 31 33 0
-30 29 0
-33 -34 0
57 -34 0
34 33 -57 0
-34 29 0
-31 -32 0
-57 -32 0
32 31 57 0
-32 29 0
-29 30 34 32 0
-20 -19 0
-18 -19 0
19 20 18 0
-19 23 0
-18 -22 0
57 -22 0
22 18 -57 0
-22 23 0
-20 -21 0
-57 -21 0
21 20 57 0
-21 23 0
-23 19 22 21 0
-76 -77 0
-78 -77 0
77 76 78 0
-77 73 0
-78 -75 0
57 -75 0
75 78 -57 0
-75 73 0
-76 -74 0
-57 -74 0
74 76 57 0
-74 73 0
-73 77 75 74 0
-62 -63 0
-64 -63 0
63 62 64 0
-63 59 0
-64 -61 0
57 -61 0
61 64 -57 0
-61 59 0
-62 -60 0
-57 -60 0
60 62 57 0
-60 59 0
-59 63 61 60 0
-41 -28 0
-29 -28 0
28 41 29 0
-28 24 0
41 -26 0
-23 -26 0
26 -41 23 0
-26 24 0
-29 -25 0
-23 -25 0
25 29 23 0
-25 24 0
-24 28 26 25 0
-41 -38 0
-73 -38 0
38 41 73 0
-38 27 0
41 -43 0
-59 -43 0
43 -41 59 0
-43 27 0
-73 -58 0
-59 -58 0
58 73 59 0
-58 27 0
-27 38 43 58 0
-14 -12 0
-24 -12 0
12 14 24 0
-12 10 0
14 -13 0
-27 -13 0
13 -14 27 0
-13 10 0
-24 -17 0
-27 -17 0
17 24 27 0
-17 10 0
-10 12 13 17 0
-49 -46 0
-47 -46 0
46 49 47 0
-46 45 0
-47 -48 0
57 -48 0
48 47 -57 0
-48 45 0
-49 -50 0
-57 -50 0
50 49 57 0
-50 45 0
-45 46 48 50 0
-55 -52 0
-53 -52 0
52 55 53 0
-52 51 0
-53 -54 0
57 -54 0
54 53 -57 0
-54 51 0
-55 -56 0
-57 -56 0
56 55 57 0
-56 51 0
-51 52 54 56 0
-82 -83 0
-84 -83 0
83 82 84 0
-83 79 0
-84 -80 0
57 -80 0
80 84 -57 0
-80 79 0
-82 -81 0
-57 -81 0
81 82 57 0
-81 79 0
-79 83 80 81 0
-71 -68 0
-67 -68 0
68 71 67 0
-68 69 0
-67 -66 0
57 -66 0
66 67 -57 0
-66 69 0
-71 -70 0
-57 -70 0
70 71 57 0
-70 69 0
-69 68 66 70 0
-41 -39 0
-45 -39 0
39 41 45 0
-39 36 0
41 -40 0
-51 -40 0
40 -41 51 0
-40 36 0
-45 -44 0
-51 -44 0
44 45 51 0
-44 36 0
-36 39 40 44 0
-41 -65 0
-79 -65 0
65 41 79 0
-65 37 0
41 -42 0
-69 -42 0
42 -41 69 0
-42 37 0
-79 -72 0
-69 -72 0
72 79 69 0
-72 37 0
-37 65 42 72 0
-14 -16 0
-36 -16 0
16 14 36 0
-16 11 0
14 -15 0
-37 -15 0
15 -14 37 0
-15 11 0
-36 -35 0
-37 -35 0
35 36 37 0
-35 11 0
-11 16 15 35 0
-7 -6 0
-10 -6 0
6 7 10 0
-6 5 0
7 -8 0
-11 -8 0
8 -7 11 0
-8 5 0
-10 -9 0
-11 -9 0
9 10 11 0
-9 5 0
-5 6 8 9 0
